1, 36, 25, 44, 45, 46, 47, 37, 24, 34, 33, 20, 1
1, 14, 16, 15, 52, 53, 22, 30, 21, 27, 28, 29, 23, 32, 31, 26, 17, 1
1, 35, 39, 42, 43, 51, 50, 48, 49, 41, 40, 38, 19, 1
1, 18, 2, 4, 6, 5, 9, 12, 11, 10, 13, 8, 7, 3, 1
